start=1;

limit = 6;

n = 14;

m=[|-1,-1,-1,-1,20,5,19,-1,-1,14,6,-1,12,-1,
|10,-1,13,-1,-1,6,18,0,-1,17,2,-1,-1,20,
|-1,19,-1,-1,-1,18,7,7,10,13,7,-1,-1,7,
|-1,-1,-1,-1,13,2,10,17,-1,-1,-1,11,1,-1,
|18,7,11,7,-1,-1,19,16,12,-1,3,11,10,2,
|-1,15,-1,-1,-1,-1,-1,10,5,-1,-1,-1,-1,19,
|-1,16,6,-1,-1,-1,-1,-1,11,0,7,-1,-1,1,
|6,-1,-1,-1,1,-1,-1,-1,3,-1,11,7,-1,-1,
|-1,-1,20,3,-1,11,11,-1,-1,9,15,5,-1,-1,
|20,-1,-1,17,9,15,-1,-1,-1,-1,-1,11,9,5,
|-1,8,-1,19,-1,17,-1,9,-1,-1,-1,-1,-1,-1,
|-1,-1,-1,14,4,-1,-1,13,3,-1,-1,-1,-1,-1,
|18,-1,15,4,-1,-1,12,-1,-1,11,14,15,-1,8,
|1,-1,-1,-1,6,8,-1,17,-1,-1,-1,5,-1,-1,
|];